
Gurobi 9.1.2 (win64) logging started Mon Dec  6 14:01:33 2021

Gurobi Optimizer version 9.1.2 build v9.1.2rc0 (win64)
Thread count: 8 physical cores, 8 logical processors, using up to 8 threads
Optimize a model with 1 rows, 26 columns and 25 nonzeros
Model fingerprint: 0x888de163
Variable types: 1 continuous, 25 integer (25 binary)
Coefficient statistics:
  Matrix range     [1e+00, 1e+01]
  Objective range  [1e+00, 1e+00]
  Bounds range     [1e+01, 1e+01]
  RHS range        [1e+01, 1e+01]
Presolve time: 0.00s
Presolved: 1 rows, 26 columns, 25 nonzeros
Variable types: 1 continuous, 25 integer (25 binary)

Root simplex log...

Iteration    Objective       Primal Inf.    Dual Inf.      Time
       0   -1.3413983e+01   8.253490e-02   0.000000e+00     15s
       3   -1.3413983e+01   0.000000e+00   0.000000e+00     15s

Root relaxation: objective -1.341398e+01, 3 iterations, 0.00 seconds

    Nodes    |    Current Node    |     Objective Bounds      |     Work
 Expl Unexpl |  Obj  Depth IntInf | Incumbent    BestBd   Gap | It/Node Time

*    0     0               0     -13.4139835  -13.41398  0.00%     -   14s

Cutting planes:
  Lazy constraints: 3

Explored 0 nodes (5 simplex iterations) in 14.97 seconds
Thread count was 8 (of 8 available processors)

Solution count 1: -13.414 
No other solutions better than -13.414

Optimal solution found (tolerance 1.00e-04)
Best objective -1.341398349432e+01, best bound -1.341398349432e+01, gap 0.0000%

User-callback calls 74, time in user-callback 18.86 sec
